p wcnf 135 68 69 
1 -92 96 0 
1 -96 6 0 
1 19 80 0 
1 -46 87 0 
1 20 86 0 
1 -52 9 0 
1 -76 -75 0 
1 52 -59 0 
1 -119 -63 0 
1 -44 -27 0 
1 -42 -117 0 
1 -99 -132 0 
1 -86 -4 0 
1 -104 -60 0 
1 93 -58 0 
1 -32 95 0 
1 39 61 0 
1 -100 82 0 
1 -79 -88 0 
1 -122 -58 0 
1 113 8 0 
1 -124 -111 0 
1 33 9 0 
1 7 -79 0 
1 32 -53 0 
1 53 99 0 
1 -104 110 0 
1 71 -44 0 
1 -53 79 0 
1 80 58 0 
1 65 -1 0 
1 -39 112 0 
1 -90 114 0 
1 66 -31 0 
1 -99 -120 0 
1 34 -92 0 
1 -122 -87 0 
1 21 17 0 
1 91 -90 0 
1 -111 125 0 
1 -29 100 0 
1 -89 -9 0 
1 32 -71 0 
1 70 -44 0 
1 132 10 0 
1 -2 43 0 
1 -83 121 0 
1 54 74 0 
1 -101 -37 0 
1 54 -94 0 
1 60 116 0 
1 -22 83 0 
1 -98 -2 0 
1 113 -127 0 
1 127 87 0 
1 57 22 0 
1 79 -51 0 
1 131 102 0 
1 -57 -113 0 
1 -24 -80 0 
1 -7 45 0 
1 62 13 0 
1 -87 105 0 
1 16 -1 0 
1 -73 33 0 
1 48 7 0 
1 -56 -41 0 
1 5 -87 0 
